CapLotSizing_PM/src/Instancias/TCHSLT/6i18p4m/NBB00.dat
6 18 4
 1
       606
       606
       606
       606
    2
     3
     3
     4
     2
     2
   1.1  37.4    78    24 
  1.3  44.3   240    22 
  2.6  49.7   601    20 
  3.6  40.5   899    22 
  4.6  34.4   375    21 
  2.2  45.7   143    16 
  2.9  33.5   487    21 
  3.8  15.8    84    18 
  2.2  25.7   145    21 
  1.6  38.8    55    20 
  4.7  38.4   205    25 
  4.9  13.7   822    22 
  2.3  17.6   575    24 
  4.1  32.5   455    17 
  3.2  11.2   281    16 
  1.9  45.2   419    20 
  4.7  43.7   226    22 
  1.1  29.9   209    20 
  2.4  46.0   820    15 
  1.8  15.5   185    23 
  4.4  32.6   938    25 
  3.8  47.7   918    21 
  4.2  14.9   220    21 
  2.7  44.5    65    24 
   42    12   104    66   153   103 
  170    70    16   120   177   172 
   93   162    60    67     3    90 
    3    59    44    80   161   125 
   24   160    89   135    44    52 
    8   166   101   111     8    41 
  143   140    25    30   155   108 
    1    26    81   179    22     0 
   26     0    18   151     0   164 
  115   165   129    88    96   169 
   75   107    33    62    79   126 
  174    45    71    89   109    51 
  126   154    38   117    78    53 
   24   160    78    89   136    67 
   76    51     5    32    44   117 
  125     7    21   172    30    73 
   98    88    51    71    79   100 
  122    62    72    37   129   145 
